lattice_vector     15.34798071      0.00854074      0.00575100
lattice_vector      0.00048037     15.31239173     -0.00923808
lattice_vector     -0.00149927      0.01100195     19.20165629
atom_frac       0.24772726      0.26960270      0.70232204 Cu
initial_moment 1.0
atom_frac       0.75003166      0.76802387      0.33527800 Cu
initial_moment -1.0
atom_frac       0.74767385      0.76960487      0.83523056 Cu
initial_moment -1.0
atom_frac       0.25012839      0.26799467      0.20224667 Cu
initial_moment 1.0
atom_frac       0.25037845      0.26840954      0.83532111 Cu
initial_moment -1.0
atom_frac       0.74740835      0.76905867      0.20219727 Cu
initial_moment 1.0
atom_frac       0.75041739      0.76845382      0.70221546 Cu
initial_moment 1.0
atom_frac       0.24738458      0.26920035      0.33538597 Cu
initial_moment -1.0
atom_frac       0.33054624      0.17126538      0.70725913 O
atom_frac       0.65203884      0.85090187      0.33030825 O
atom_frac       0.16571942      0.36715201      0.71379710 O
atom_frac       0.84753932      0.68602889      0.32451423 O
atom_frac       0.34552542      0.35255539      0.70979459 O
atom_frac       0.66779237      0.66933779      0.32801834 O
atom_frac       0.14987798      0.18718991      0.71176593 O
atom_frac       0.83213336      0.86610621      0.32488805 O
atom_frac       0.64914739      0.68840682      0.82511142 O
atom_frac       0.33270226      0.36567233      0.21077107 O
atom_frac       0.84650395      0.85146202      0.82900022 O
atom_frac       0.16783960      0.16981645      0.20969487 O
atom_frac       0.66662298      0.86824701      0.82397395 O
atom_frac       0.34742563      0.18566472      0.21425337 O
atom_frac       0.82900618      0.66997217      0.82933431 O
atom_frac       0.15200908      0.35121261      0.20742148 O
atom_frac       0.34863108      0.18720580      0.82347459 O
atom_frac       0.66562020      0.86714131      0.21371709 O
atom_frac       0.15116108      0.35031453      0.83025479 O
atom_frac       0.82935718      0.66994008      0.20833748 O
atom_frac       0.33193154      0.36712286      0.82648737 O
atom_frac       0.64956857      0.68717729      0.21201648 O
atom_frac       0.16915120      0.16920518      0.82762596 O
atom_frac       0.84576283      0.85144008      0.20817498 O
atom_frac       0.66812034      0.66985692      0.70926612 O
atom_frac       0.34494480      0.35246496      0.32767173 O
atom_frac       0.83272650      0.86630468      0.71231618 O
atom_frac       0.14983587      0.18631269      0.32582455 O
atom_frac       0.65241367      0.85146444      0.70748236 O
atom_frac       0.33061606      0.17129625      0.33073252 O
atom_frac       0.84782982      0.68623235      0.71323678 O
atom_frac       0.16495879      0.36631009      0.32415631 O
atom_frac       0.24764046      0.26932912      0.58582452 N
atom_frac       0.74986454      0.76835598      0.45181452 N
atom_frac       0.74769983      0.77034645      0.95176695 N
atom_frac       0.24746806      0.26923356      0.45198908 N
atom_frac       0.74985093      0.76869294      0.58565998 N
atom_frac       0.25054662      0.26880059      0.95177658 N
atom_frac       0.25039506      0.26868367      0.08565887 N
atom_frac       0.74771669      0.77008828      0.08565320 N
atom_frac       0.36610325      0.15293610      0.76502995 C
atom_frac       0.63247178      0.88547515      0.27238029 C
atom_frac       0.13189494      0.38500521      0.77232860 C
atom_frac       0.86480562      0.65153270      0.26609484 C
atom_frac       0.36508087      0.38630195      0.76798633 C
atom_frac       0.63231511      0.65183245      0.27009724 C
atom_frac       0.13318871      0.15169567      0.76988335 C
atom_frac       0.86537176      0.88513800      0.26641509 C
atom_frac       0.63218156      0.65276044      0.76710798 C
atom_frac       0.36524264      0.38543107      0.26935519 C
atom_frac       0.86610944      0.88518169      0.77076698 C
atom_frac       0.13243754      0.15161958      0.26755366 C
atom_frac       0.63321169      0.88635688      0.76537239 C
atom_frac       0.36547676      0.15213463      0.27283992 C
atom_frac       0.86469112      0.65153420      0.77163737 C
atom_frac       0.13201801      0.38509430      0.26550164 C
atom_frac       0.43539682      0.08425637      0.76459500 C
atom_frac       0.56361158      0.95458400      0.27303324 C
atom_frac       0.06264201      0.45374192      0.77258271 C
atom_frac       0.93383510      0.58259319      0.26561497 C
atom_frac       0.43399758      0.45532738      0.76763945 C
atom_frac       0.56333336      0.58289777      0.26999071 C
atom_frac       0.06432805      0.08261493      0.77029318 C
atom_frac       0.93439953      0.95404393      0.26638587 C
atom_frac       0.56306207      0.58395476      0.76715670 C
atom_frac       0.43431068      0.45427814      0.26961651 C
atom_frac       0.93527985      0.95395581      0.77078253 C
atom_frac       0.06348287      0.08265627      0.26703165 C
atom_frac       0.56443089      0.95555699      0.76477919 C
atom_frac       0.43464657      0.08334921      0.27330013 C
atom_frac       0.93350955      0.58236661      0.77219096 C
atom_frac       0.06292334      0.45396385      0.26524439 C
atom_frac       0.45812238      0.04192234      0.70272063 C
atom_frac       0.52242984      0.97801280      0.33521258 C
atom_frac       0.03919406      0.49496657      0.71040420 C
atom_frac       0.97462946      0.55834226      0.32773563 C
atom_frac       0.47567341      0.47813179      0.70552903 C
atom_frac       0.53973846      0.54127165      0.33195059 C
atom_frac       0.02196438      0.05981158      0.70850613 C
atom_frac       0.95726518      0.99566314      0.32852445 C
atom_frac       0.52131933      0.56121800      0.82925380 C
atom_frac       0.45802554      0.49580923      0.20763607 C
atom_frac       0.97762374      0.97673807      0.83258373 C
atom_frac       0.04064652      0.04102041      0.20489095 C
atom_frac       0.54178220      0.99803751      0.82661445 C
atom_frac       0.47594684      0.05997980      0.21115163 C
atom_frac       0.95680954      0.54104088      0.83435371 C
atom_frac       0.02213256      0.47816854      0.20311336 C
atom_frac       0.47774709      0.06194554      0.82651971 C
atom_frac       0.53995944      0.99606519      0.21102549 C
atom_frac       0.02099583      0.47716790      0.83456038 C
atom_frac       0.95795916      0.54204203      0.20331929 C
atom_frac       0.45730097      0.49733117      0.82949716 C
atom_frac       0.52202651      0.55972200      0.20782620 C
atom_frac       0.04174308      0.04058557      0.83232625 C
atom_frac       0.97649339      0.97720863      0.20454944 C
atom_frac       0.53980841      0.54193410      0.70529682 C
atom_frac       0.47560948      0.47747157      0.33177549 C
atom_frac       0.95794415      0.99593284      0.70874271 C
atom_frac       0.02129096      0.05952995      0.32883958 C
atom_frac       0.52225825      0.97799698      0.70281260 C
atom_frac       0.45833876      0.04199170      0.33535290 C
atom_frac       0.97511712      0.55883279      0.71021430 C
atom_frac       0.03870183      0.49446397      0.32755244 C
atom_frac       0.77817042      0.85424290      0.55886721 C
atom_frac       0.77794631      0.85411525      0.47834275 C
atom_frac       0.66156725      0.75080619      0.55906019 C
atom_frac       0.66163277      0.75032680      0.47850642 C
atom_frac       0.80941632      0.70101755      0.55905484 C
atom_frac       0.80961469      0.70098582      0.47857964 C
atom_frac       0.21199458      0.18645723      0.55923617 C
atom_frac       0.21399720      0.18552740      0.47872790 C
atom_frac       0.33709343      0.27937756      0.55905727 C
atom_frac       0.33669857      0.28157571      0.47855228 C
atom_frac       0.19404958      0.34178474      0.55915341 C
atom_frac       0.19218910      0.34038547      0.47870228 C
atom_frac       0.71771170      0.85519567      0.05903953 C
atom_frac       0.71393829      0.85392401      0.97857549 C
atom_frac       0.83631118      0.75386054      0.05890531 C
atom_frac       0.83694608      0.75807022      0.97843929 C
atom_frac       0.68951106      0.70142184      0.05884049 C
atom_frac       0.69258867      0.69907204      0.97844860 C
atom_frac       0.16459046      0.24160771      0.05882343 C
atom_frac       0.16664480      0.23607253      0.97847467 C
atom_frac       0.26944861      0.35687916      0.05898134 C
atom_frac       0.26373637      0.35801851      0.97860364 C
atom_frac       0.31697133      0.20803672      0.05887948 C
atom_frac       0.32078981      0.21247882      0.97855787 C
atom_frac       0.30000637      0.14220694      0.07765691 H
atom_frac       0.37970508      0.22563415      0.08292403 H
atom_frac       0.32339880      0.38410340      0.95449973 H
atom_frac       0.20892566      0.39801814      0.95968210 H
atom_frac       0.15919976      0.16855443      0.95967115 H
atom_frac       0.11449480      0.27507697      0.95421167 H
atom_frac       0.31342953      0.14759585      0.95449578 H
atom_frac       0.38295615      0.23970473      0.95979115 H
atom_frac       0.62742097      0.70659399      0.95523403 H
atom_frac       0.71980492      0.63729362      0.95858244 H
atom_frac       0.64690792      0.86137208      0.95897690 H
atom_frac       0.75308947      0.90664943      0.95523391 H
atom_frac       0.86305197      0.69792718      0.95487500 H
atom_frac       0.87645108      0.81277533      0.95870454 H
atom_frac       0.11658717      0.28961111      0.07773314 H
atom_frac       0.22278538      0.40237195      0.08323185 H
atom_frac       0.33479773      0.37486632      0.07778516 H
atom_frac       0.14819714      0.17849965      0.08295572 H
atom_frac       0.71010257      0.63895831      0.08210812 H
atom_frac       0.85694245      0.68952977      0.07857220 H
atom_frac       0.87977869      0.80287930      0.08245770 H
atom_frac       0.62354662      0.71544677      0.07852137 H
atom_frac       0.76303762      0.90514538      0.07886744 H
atom_frac       0.22184393      0.40293621      0.57964152 H
atom_frac       0.12841274      0.33505931      0.58174195 H
atom_frac       0.12593855      0.32997356      0.45826381 H
atom_frac       0.21625844      0.40195114      0.45610797 H
atom_frac       0.65353122      0.86864525      0.08236628 H
atom_frac       0.37578154      0.22457514      0.57974371 H
atom_frac       0.36401741      0.33970041      0.58163131 H
atom_frac       0.37761529      0.22977136      0.45577864 H
atom_frac       0.36060864      0.34424154      0.45793867 H
atom_frac       0.14533807      0.17997996      0.57981177 H
atom_frac       0.25090617      0.13308260      0.58193241 H
atom_frac       0.14879592      0.17549283      0.45621558 H
atom_frac       0.25641083      0.13354519      0.45804829 H
atom_frac       0.78795268      0.63792228      0.58064052 H
atom_frac       0.87453394      0.71441880      0.58063487 H
atom_frac       0.87476457      0.71470560      0.45715663 H
atom_frac       0.78857421      0.63776333      0.45697124 H
atom_frac       0.61800002      0.80124910      0.58057612 H
atom_frac       0.64063912      0.68774670      0.58095550 H
atom_frac       0.61780458      0.80024920      0.45658558 H
atom_frac       0.64110625      0.68688253      0.45708152 H
atom_frac       0.84343918      0.86731566      0.58025117 H
atom_frac       0.73384096      0.90390555      0.58059184 H
atom_frac       0.84303318      0.86742976      0.45667339 H
atom_frac       0.73327041      0.90349702      0.45668676 H
atom_frac       0.45928525      0.09591057      0.87432915 H
atom_frac       0.57301326      0.97710415      0.16296095 H
atom_frac       0.03994242      0.44418284      0.88267880 H
atom_frac       0.92522288      0.56158898      0.15527272 H
atom_frac       0.42403345      0.47885981      0.87758306 H
atom_frac       0.54122905      0.59297580      0.15989275 H
atom_frac       0.07555720      0.05906058      0.88015351 H
atom_frac       0.95793255      0.94402862      0.15642905 H
atom_frac       0.57321223      0.56026236      0.65723398 H
atom_frac       0.45644778      0.44424710      0.37972813 H
atom_frac       0.92404942      0.97750871      0.66094132 H
atom_frac       0.03976669      0.09281990      0.37692362 H
atom_frac       0.54068663      0.94410816      0.65495593 H
atom_frac       0.42531601      0.06090538      0.38345360 H
atom_frac       0.95608406      0.59184171      0.66213421 H
atom_frac       0.07133900      0.47471367      0.37558153 H
atom_frac       0.42428520      0.06004055      0.65480305 H
atom_frac       0.54161965      0.94488459      0.38320651 H
atom_frac       0.95492336      0.59073450      0.37591945 H
atom_frac       0.57284979      0.55996998      0.38003783 H
atom_frac       0.04028654      0.09338137      0.66050089 H
atom_frac       0.92353885      0.97693311      0.37634198 H
atom_frac       0.54024479      0.59474948      0.87712183 H
atom_frac       0.42500338      0.47699170      0.15953968 H
atom_frac       0.95924866      0.94325117      0.88062015 H
atom_frac       0.57562478      0.97984257      0.87450316 H
atom_frac       0.45661460      0.09309355      0.16319884 H
atom_frac       0.92346388      0.55998317      0.88230390 H
atom_frac       0.07250933      0.47585253      0.66248822 H
atom_frac       0.45683658      0.44459032      0.65764282 H
atom_frac       0.07433840      0.05969297      0.15704204 H
atom_frac       0.04169953      0.44573678      0.15490742 H
