lattice_vector     16.02653581     -0.01552250      0.00499545
lattice_vector      0.00013276     21.02584678      0.00203148
lattice_vector      0.01663774      0.00443372     19.20250677
atom_frac       0.50090524      0.00014158      0.18273816 Cu
initial_moment 1.0
atom_frac       0.50063517      0.00015664      0.68270761 Cu
initial_moment 1.0
atom_frac       0.49960021      1.00009517      0.31653311 Cu
initial_moment -1.0
atom_frac       0.49895259      1.00001181      0.81628236 Cu
initial_moment -1.0
atom_frac       0.00017930      0.50056953      0.18357293 Cu
initial_moment 1.0
atom_frac      -0.00036305      0.50046917      0.68353819 Cu
initial_moment 1.0
atom_frac       0.00031108      0.49966460      0.31796151 Cu
initial_moment -1.0
atom_frac      -0.00008364      0.49960557      0.81802908 Cu
initial_moment -1.0
atom_frac       0.57724582      0.92749726      0.19138452 O
atom_frac       0.57190858      0.92484669      0.69186690 O
atom_frac       0.40470643      0.06093601      0.30621982 O
atom_frac       0.39901293      0.05829569      0.80419961 O
atom_frac       0.42521291      0.07328572      0.19079055 O
atom_frac       0.43029521      0.07610771      0.69131028 O
atom_frac       0.59460177      0.93900742      0.30733147 O
atom_frac       0.59873451      0.94114305      0.80586016 O
atom_frac       0.42433809      0.92804830      0.30781788 O
atom_frac       0.42780393      0.92543290      0.80714557 O
atom_frac       0.59411796      0.06062467      0.19268470 O
atom_frac       0.60002639      0.05804804      0.69514010 O
atom_frac       0.57422671      0.07283938      0.30886969 O
atom_frac       0.56911982      0.07552873      0.80877539 O
atom_frac       0.40720006      0.93959049      0.19123791 O
atom_frac       0.40070170      0.94196392      0.69264966 O
atom_frac       0.10018855      0.44246708      0.19585633 O
atom_frac       0.09897939      0.44231240      0.69545966 O
atom_frac       0.92958844      0.57425043      0.31220893 O
atom_frac       0.92888552      0.57399398      0.81200713 O
atom_frac       0.90100465      0.55887878      0.19769840 O
atom_frac       0.90102561      0.55873687      0.69731736 O
atom_frac       0.07054386      0.42521373      0.30980121 O
atom_frac       0.07040944      0.42531528      0.80967325 O
atom_frac       0.90036658      0.44114289      0.30335482 O
atom_frac       0.90059332      0.44125522      0.80375810 O
atom_frac       0.07079509      0.57518857      0.19182163 O
atom_frac       0.07041100      0.57480983      0.69185817 O
atom_frac       0.10100912      0.55838553      0.30510741 O
atom_frac       0.09992468      0.55819342      0.80532541 O
atom_frac       0.92960354      0.42540439      0.18961572 O
atom_frac       0.92883990      0.42562146      0.68980194 O
atom_frac       0.60760446      0.91171055      0.24976264 C
atom_frac       0.60687208      0.91153343      0.74927365 C
atom_frac       0.39331986      0.08870690      0.24872850 C
atom_frac       0.39306367      0.08867835      0.74795208 C
atom_frac       0.39390597      0.91223015      0.24914485 C
atom_frac       0.39240858      0.91235099      0.74951417 C
atom_frac       0.60594406      0.08838377      0.25050248 C
atom_frac       0.60626572      0.08826433      0.75172616 C
atom_frac       0.10719650      0.41248522      0.25251443 C
atom_frac       0.10657364      0.41248581      0.75221614 C
atom_frac       0.89361373      0.58797824      0.25489054 C
atom_frac       0.89314727      0.58769975      0.75459972 C
atom_frac       0.89333166      0.41184093      0.24659403 C
atom_frac       0.89299364      0.41203766      0.74694918 C
atom_frac       0.03733800      0.55960603      0.04009118 C
atom_frac       0.03698041      0.55961134      0.53966556 C
atom_frac       0.03020885      0.56096502      0.45916564 C
atom_frac       0.03014652      0.56095015      0.95962365 C
atom_frac       0.10766169      0.58813692      0.24855286 C
atom_frac       0.10695454      0.58785054      0.74870027 C
atom_frac       0.66289026      0.85309105      0.25045122 C
atom_frac       0.66185772      0.85264084      0.74970467 C
atom_frac       0.49348135      0.93333253      0.03857075 C
atom_frac       0.49316124      0.93325625      0.54156721 C
atom_frac       0.48735471      0.93349368      0.46096100 C
atom_frac       0.48731564      0.93344644      0.95798537 C
atom_frac       0.05209104      0.44842439      0.46108369 C
atom_frac       0.05200513      0.44843131      0.96153166 C
atom_frac       0.04553466      0.44601435      0.04196756 C
atom_frac       0.04542398      0.44605477      0.54150649 C
atom_frac       0.33808719      0.14736794      0.24902555 C
atom_frac       0.33798303      0.14750513      0.74797103 C
atom_frac       0.33998568      0.85517500      0.24885371 C
atom_frac       0.33856891      0.85510176      0.74971724 C
atom_frac       0.65992235      0.14539464      0.25004122 C
atom_frac       0.66001637      0.14553911      0.75174226 C
atom_frac       0.16109194      0.35532155      0.25281779 C
atom_frac       0.16063642      0.35543583      0.75230762 C
atom_frac       0.91340868      0.49033591      0.46009720 C
atom_frac       0.91336746      0.49035427      0.96086089 C
atom_frac       0.91254832      0.49750742      0.04133082 C
atom_frac       0.91235803      0.49735998      0.54058304 C
atom_frac       0.83987630      0.64521974      0.25547994 C
atom_frac       0.83906602      0.64473128      0.75507119 C
atom_frac       0.83806014      0.35306471      0.24608772 C
atom_frac       0.83762094      0.35340404      0.74670099 C
atom_frac       0.16302163      0.64687578      0.24754370 C
atom_frac       0.16227870      0.64652431      0.74782767 C
atom_frac       0.66778732      0.82034602      0.18741673 C
atom_frac       0.66652944      0.81962804      0.68681885 C
atom_frac       0.30351179      0.16307547      0.31344471 C
atom_frac       0.30318089      0.16310643      0.81237072 C
atom_frac       0.33108850      0.17873168      0.18528559 C
atom_frac       0.33110140      0.17913352      0.68437333 C
atom_frac       0.69947738      0.83877633      0.31442536 C
atom_frac       0.69862887      0.83835322      0.81364047 C
atom_frac       0.70946845      0.76393957      0.17254056 C
atom_frac       0.70837153      0.76326770      0.67205892 C
atom_frac       0.25386811      0.21501536      0.33076990 C
atom_frac       0.25380142      0.21510941      0.82988449 C
atom_frac       0.28879873      0.23476811      0.16989175 C
atom_frac       0.28851165      0.23507484      0.66914885 C
atom_frac       0.74974890      0.78724806      0.33195439 C
atom_frac       0.74857352      0.78671116      0.83132075 C
atom_frac       0.75742251      0.72529973      0.21594602 C
atom_frac       0.75643500      0.72467789      0.71546458 C
atom_frac       0.22586317      0.26513272      0.28922617 C
atom_frac       0.22567377      0.26530923      0.78851318 C
atom_frac       0.24226507      0.27440373      0.21336597 C
atom_frac       0.24187349      0.27462135      0.71267521 C
atom_frac       0.77639307      0.73622832      0.29109134 C
atom_frac       0.77526498      0.73561695      0.79059153 C
atom_frac       0.72465908      0.23567873      0.28621102 C
atom_frac       0.72428193      0.23617267      0.78743332 C
atom_frac       0.25853162      0.77399654      0.21039461 C
atom_frac       0.25711426      0.77398187      0.71107329 C
atom_frac       0.27577093      0.76493212      0.28607217 C
atom_frac       0.27486006      0.76456277      0.78667269 C
atom_frac       0.74193911      0.22595535      0.21060558 C
atom_frac       0.74197380      0.22599349      0.71191175 C
atom_frac       0.43108146      0.03650980      0.03838724 C
atom_frac       0.43058776      0.03644860      0.54119328 C
atom_frac       0.43359975      0.03940734      0.46071102 C
atom_frac       0.43360980      0.03952276      0.95787677 C
atom_frac       0.75228381      0.28603348      0.32758929 C
atom_frac       0.75164119      0.28680288      0.82846056 C
atom_frac       0.21123552      0.73422171      0.16762890 C
atom_frac       0.20988488      0.73427775      0.66823605 C
atom_frac       0.24849074      0.71481114      0.32806425 C
atom_frac       0.24795193      0.71420624      0.82842716 C
atom_frac       0.78950995      0.26516877      0.16728831 C
atom_frac       0.78944758      0.26505536      0.66840723 C
atom_frac       0.32558577      0.81601270      0.30699836 C
atom_frac       0.32474775      0.81557544      0.80763897 C
atom_frac       0.70086849      0.17004748      0.19113827 C
atom_frac       0.70131368      0.16983658      0.69284085 C
atom_frac       0.67448113      0.18496444      0.30775944 C
atom_frac       0.67403927      0.18556091      0.80915279 C
atom_frac       0.29929158      0.82988683      0.19025440 C
atom_frac       0.29745254      0.83009610      0.69119033 C
atom_frac       0.20136133      0.33028953      0.19384581 C
atom_frac       0.20080838      0.33048063      0.69324317 C
atom_frac       0.82685909      0.68574928      0.31267772 C
atom_frac       0.82581501      0.68521515      0.81226654 C
atom_frac       0.79765803      0.66901225      0.19691184 C
atom_frac       0.79684724      0.66844263      0.69645586 C
atom_frac       0.57962846      0.02613072      0.03758662 C
atom_frac       0.57936150      0.02623970      0.54075619 C
atom_frac       0.58114329      0.02189568      0.46023752 C
atom_frac       0.58127719      0.02187485      0.95704379 C
atom_frac       0.17607381      0.31603200      0.31071497 C
atom_frac       0.17584610      0.31613751      0.81015409 C
atom_frac       0.80211744      0.33786292      0.31018129 C
atom_frac       0.80150479      0.33854813      0.81082301 C
atom_frac       0.16884510      0.67830315      0.18371223 C
atom_frac       0.16778014      0.67819365      0.68411822 C
atom_frac       0.19890869      0.66266416      0.31138805 C
atom_frac       0.19839798      0.66207603      0.81165054 C
atom_frac       0.83218399      0.32111884      0.18262032 C
atom_frac       0.83192532      0.32115594      0.68340088 C
atom_frac       0.63321159      0.84200681      0.14458117 H
atom_frac       0.63159927      0.84103402      0.64403933 H
atom_frac       0.31844818      0.13010029      0.35559340 H
atom_frac       0.31771700      0.12978315      0.85427962 H
atom_frac       0.68584375      0.87263428      0.35603511 H
atom_frac       0.68540030      0.87252181      0.85502874 H
atom_frac       0.35012761      0.82367005      0.35908503 H
atom_frac       0.34975505      0.82295600      0.85961597 H
atom_frac       0.70043186      0.14927599      0.13929406 H
atom_frac       0.70123634      0.14856208      0.64124339 H
atom_frac       0.64990643      0.17787469      0.35998691 H
atom_frac       0.64906251      0.17884161      0.86130490 H
atom_frac       0.29960127      0.85016166      0.13815781 H
atom_frac       0.29735601      0.85078260      0.63928966 H
atom_frac       0.20033975      0.35073693      0.14184458 H
atom_frac       0.19963394      0.35093886      0.64125103 H
atom_frac       0.85258958      0.67947823      0.36458687 H
atom_frac       0.85150656      0.67901395      0.86419837 H
atom_frac       0.79689260      0.64737141      0.14550934 H
atom_frac       0.79619935      0.64681405      0.64504776 H
atom_frac       0.15216040      0.32351448      0.36307919 H
atom_frac       0.15203005      0.32353258      0.86256313 H
atom_frac       0.81614380      0.37139940      0.35198561 H
atom_frac       0.81542018      0.37226674      0.85246751 H
atom_frac       0.13443121      0.65595701      0.14119220 H
atom_frac       0.13333218      0.65595879      0.64155588 H
atom_frac       0.18511609      0.62946627      0.35361948 H
atom_frac       0.18484081      0.62872714      0.85378224 H
atom_frac       0.86670399      0.34297115      0.13977551 H
atom_frac       0.86644458      0.34282201      0.64045016 H
atom_frac       0.69891207      0.73888773      0.08684950 Cl
atom_frac       0.69781878      0.73808602      0.58638060 Cl
atom_frac       0.22381988      0.21688366      0.41762518 Cl
atom_frac       0.22388114      0.21686534      0.91681444 Cl
atom_frac       0.29642709      0.25783838      0.08330620 Cl
atom_frac       0.29604597      0.25831099      0.58258157 Cl
atom_frac       0.78268117      0.78729155      0.41805697 Cl
atom_frac       0.78137695      0.78679932      0.91748771 Cl
atom_frac       0.72117862      0.28472292      0.41421022 Cl
atom_frac       0.72020137      0.28601387      0.91504606 Cl
atom_frac       0.20241823      0.75710967      0.08107798 Cl
atom_frac       0.20068829      0.75750291      0.58177266 Cl
atom_frac       0.27974822      0.71693744      0.41456167 Cl
atom_frac       0.27967861      0.71594282      0.91485918 Cl
atom_frac       0.79822636      0.24144792      0.08100727 Cl
atom_frac       0.79840275      0.24086301      0.58224665 Cl
atom_frac       0.43488543      0.08425967      0.06161691 H
atom_frac       0.43423988      0.08414378      0.56453998 H
atom_frac       0.37322833      1.01424612      0.05763260 H
atom_frac       0.37283405      1.01399529      0.56036682 H
atom_frac       0.44581049      0.08801187      0.44184178 H
atom_frac       0.44591883      0.08807040      0.93888817 H
atom_frac       0.37439579      0.02362763      0.43731604 H
atom_frac       0.37436970      0.02376415      0.93456754 H
atom_frac       0.63210079      0.00014525      0.06121514 H
atom_frac       0.63170511      0.00033070      0.56464933 H
atom_frac       0.58343346      0.07565052      0.05594287 H
atom_frac       0.58295950      0.07573457      0.55919344 H
atom_frac       0.62980422     -0.01098803      0.44168081 H
atom_frac       0.62972951     -0.01105566      0.93824446 H
atom_frac       0.59332381      0.06842542      0.43597161 H
atom_frac       0.59324560      0.06837822      0.93266945 H
atom_frac       0.42587663      0.91730597      0.44253568 H
atom_frac       0.42580512      0.91731560      0.93963072 H
atom_frac       0.53460412      0.90225947      0.43718255 H
atom_frac       0.53446148      0.90228260      0.93397278 H
atom_frac       0.54828792      0.90656120      0.05683332 H
atom_frac       0.54786363      0.90653966      0.56008424 H
atom_frac       0.43798809      0.91187137      0.06299914 H
atom_frac       0.43755613      0.91194523      0.56597025 H
atom_frac       0.11635496      0.45796475      0.44359857 H
atom_frac       0.11623622      0.45798060      0.94396295 H
atom_frac       0.03259694      0.40330883      0.43701406 H
atom_frac       0.03248234      0.40330581      0.93749342 H
atom_frac       0.10737211      0.44618189      0.06681255 H
atom_frac       0.10721796      0.44632865      0.56642665 H
atom_frac       0.01267672      0.40303982      0.06010679 H
atom_frac       0.01267638      0.40301551      0.55960307 H
atom_frac       0.10286392      0.56010870      0.05725056 H
atom_frac       0.10242058      0.56025094      0.55704793 H
atom_frac       0.00618656      0.60078469      0.06414572 H
atom_frac       0.00557754      0.60074454      0.56359041 H
atom_frac       0.09111265      0.57000744      0.43453335 H
atom_frac       0.09092717      0.57004487      0.93480193 H
atom_frac       0.98692252      0.59798366      0.44080672 H
atom_frac       0.98675641      0.59797566      0.94144570 H
atom_frac       0.87271603      0.52553301      0.43467071 H
atom_frac       0.87254031      0.52549371      0.93548505 H
atom_frac       0.89251653      0.44280293      0.44352179 H
atom_frac       0.89243065      0.44278394      0.94444266 H
atom_frac       0.87982560      0.54088970      0.05817583 H
atom_frac       0.87943792      0.54066104      0.55741723 H
atom_frac       0.36426305      0.15616148      0.14218969 H
atom_frac       0.36468372      0.15690941      0.64129037 H
atom_frac       0.88166656      0.45683646      0.06673310 H
atom_frac       0.88149211      0.45659606      0.56582392 H
atom_frac       0.50156267      0.99881975      0.06499511 N
atom_frac       0.50115256      0.99883364      0.56788393 N
atom_frac       0.50058679      0.99827171      0.43383842 N
atom_frac       0.50050331      0.99828514      0.93096634 N
atom_frac       0.99859248      0.50137344      0.06792353 N
atom_frac       0.99828134      0.50132709      0.56737200 N
atom_frac       0.99878674      0.49948717      0.43334999 N
atom_frac       0.99863284      0.49948456      0.93388985 N
