lattice_vector     16.02653581     -0.01552250      0.00499545
lattice_vector      0.00013276     21.02584678      0.00203148
lattice_vector      0.01663774      0.00443372     19.20250677
atom_frac       0.50074834     -0.00008198      0.18232476 Cu
initial_moment 1.0
atom_frac       0.50054775      0.00033137      0.68319368 Cu
initial_moment 1.0
atom_frac       0.49940120      0.99983160      0.31601360 Cu
initial_moment -1.0
atom_frac       0.49885170      1.00027090      0.81547964 Cu
initial_moment -1.0
atom_frac       0.00003134      0.50024970      0.18465414 Cu
initial_moment 1.0
atom_frac      -0.00035003      0.50065047      0.68474272 Cu
initial_moment 1.0
atom_frac       0.00040338      0.49947620      0.31851030 Cu
initial_moment -1.0
atom_frac       0.00030277      0.49988728      0.81854096 Cu
initial_moment -1.0
atom_frac       0.57725827      0.92701520      0.19134991 O
atom_frac       0.57876884      0.92673995      0.69147695 O
atom_frac       0.40541497      0.06122744      0.30653631 O
atom_frac       0.40151735      0.06145259      0.80583268 O
atom_frac       0.42473819      0.07322087      0.19089025 O
atom_frac       0.42326007      0.07459992      0.69080275 O
atom_frac       0.59337072      0.93809643      0.30749905 O
atom_frac       0.59620227      0.93855919      0.80724230 O
atom_frac       0.42326391      0.92833305      0.30695506 O
atom_frac       0.42435206      0.92837916      0.80687755 O
atom_frac       0.59371570      0.06029245      0.19175613 O
atom_frac       0.59224638      0.06087626      0.69215773 O
atom_frac       0.57486850      0.07208597      0.30811793 O
atom_frac       0.57272577      0.07290149      0.80830842 O
atom_frac       0.40715333      0.93962119      0.19025214 O
atom_frac       0.40828757      0.93984627      0.69030315 O
atom_frac       0.09457212      0.43985039      0.19532371 O
atom_frac       0.09488310      0.44162769      0.69497266 O
atom_frac       0.92563833      0.57178205      0.31361356 O
atom_frac       0.92483878      0.57135364      0.81339377 O
atom_frac       0.90608216      0.56074551      0.19729365 O
atom_frac       0.90514072      0.55986823      0.69706458 O
atom_frac       0.07523898      0.42760225      0.31147740 O
atom_frac       0.07595540      0.42894069      0.81118569 O
atom_frac       0.90455976      0.43813878      0.30493693 O
atom_frac       0.90523596      0.43784811      0.80570455 O
atom_frac       0.07525975      0.57277698      0.19101000 O
atom_frac       0.07403676      0.57396700      0.69122880 O
atom_frac       0.09684966      0.56080931      0.30631131 O
atom_frac       0.09591074      0.56181557      0.80648112 O
atom_frac       0.92487382      0.42726333      0.18924253 O
atom_frac       0.92537160      0.42689781      0.68998884 O
atom_frac       0.60687014      0.91101202      0.24987657 C
atom_frac       0.60884560      0.91097177      0.74988252 C
atom_frac       0.39355911      0.08879932      0.24899044 C
atom_frac       0.39116673      0.08978991      0.74863989 C
atom_frac       0.39322174      0.91244089      0.24818959 C
atom_frac       0.39439752      0.91227175      0.74813505 C
atom_frac       0.60610781      0.08782823      0.24964566 C
atom_frac       0.60422987      0.08883550      0.74996756 C
atom_frac       0.10689278      0.41218356      0.25302826 C
atom_frac       0.10762913      0.41393243      0.75262995 C
atom_frac       0.89402709      0.58790463      0.25535565 C
atom_frac       0.89302043      0.58711034      0.75511029 C
atom_frac       0.89311009      0.41114870      0.24717627 C
atom_frac       0.89361813      0.41088326      0.74792963 C
atom_frac       0.04085001      0.55760351      0.04054499 C
atom_frac       0.03906929      0.55827487      0.54028359 C
atom_frac       0.03565374      0.55861380      0.45982812 C
atom_frac       0.03802177      0.55784851      0.96007618 C
atom_frac       0.10766998      0.58832659      0.24873656 C
atom_frac       0.10668405      0.58934966      0.74888808 C
atom_frac       0.66203963      0.85240099      0.25080225 C
atom_frac       0.66330344      0.85198215      0.75075101 C
atom_frac       0.48919201      0.93379817      0.03852625 C
atom_frac       0.49043861      0.93358185      0.54043456 C
atom_frac       0.48189573      0.93426875      0.46012529 C
atom_frac       0.48119065      0.93458631      0.95816566 C
atom_frac       0.04631842      0.44500959      0.46182796 C
atom_frac       0.04443199      0.44406668      0.96178420 C
atom_frac       0.04134252      0.44374591      0.04223915 C
atom_frac       0.04240652      0.44447419      0.54224156 C
atom_frac       0.33851571      0.14747318      0.24952358 C
atom_frac       0.33709069      0.14896191      0.74909145 C
atom_frac       0.33910660      0.85557618      0.24787631 C
atom_frac       0.34056160      0.85536810      0.74766224 C
atom_frac       0.66009095      0.14474745      0.24921428 C
atom_frac       0.65798553      0.14577274      0.74953771 C
atom_frac       0.16109907      0.35537068      0.25278741 C
atom_frac       0.16214039      0.35751146      0.75223489 C
atom_frac       0.91208823      0.49480240      0.46067937 C
atom_frac       0.91211988      0.49673027      0.96091306 C
atom_frac       0.91192549      0.50045708      0.04149719 C
atom_frac       0.91162868      0.49928191      0.54121993 C
atom_frac       0.84000820      0.64480712      0.25542948 C
atom_frac       0.83888970      0.64373880      0.75515010 C
atom_frac       0.83784292      0.35254361      0.24663792 C
atom_frac       0.83793401      0.35250272      0.74743177 C
atom_frac       0.16269354      0.64707906      0.24781757 C
atom_frac       0.16215172      0.64785429      0.74797124 C
atom_frac       0.67419186      0.82302567      0.18649413 C
atom_frac       0.67463431      0.82249771      0.68643542 C
atom_frac       0.31195687      0.16754902      0.31511205 C
atom_frac       0.31040771      0.16886181      0.81466478 C
atom_frac       0.32334261      0.17491092      0.18464304 C
atom_frac       0.32304183      0.17668911      0.68421574 C
atom_frac       0.69170810      0.83428562      0.31610109 C
atom_frac       0.69299653      0.83393975      0.81602262 C
atom_frac       0.71812836      0.76781103      0.17199553 C
atom_frac       0.71774441      0.76700660      0.67183274 C
atom_frac       0.26473393      0.22066348      0.33183760 C
atom_frac       0.26396478      0.22227381      0.83140748 C
atom_frac       0.27876494      0.22972488      0.16963897 C
atom_frac       0.27938957      0.23183566      0.66911729 C
atom_frac       0.73990028      0.78176585      0.33312121 C
atom_frac       0.74052443      0.78115444      0.83303457 C
atom_frac       0.76147843      0.72666745      0.21561297 C
atom_frac       0.76080535      0.72574579      0.71547348 C
atom_frac       0.23087624      0.26795995      0.28982573 C
atom_frac       0.23110248      0.26987074      0.78928034 C
atom_frac       0.23766255      0.27229787      0.21319403 C
atom_frac       0.23845374      0.27443067      0.71271678 C
atom_frac       0.77184895      0.73323128      0.29174958 C
atom_frac       0.77160392      0.73239471      0.79154360 C
atom_frac       0.72510412      0.23446680      0.28563628 C
atom_frac       0.72381317      0.23510240      0.78616374 C
atom_frac       0.25936357      0.77362580      0.20990676 C
atom_frac       0.26057626      0.77352134      0.70974363 C
atom_frac       0.27352603      0.76642042      0.28552568 C
atom_frac       0.27399779      0.76668462      0.78549820 C
atom_frac       0.74127339      0.22565772      0.21047637 C
atom_frac       0.73983365      0.22637340      0.71096984 C
atom_frac       0.43425829      0.03948187      0.03861269 C
atom_frac       0.43345960      0.03867825      0.54002735 C
atom_frac       0.43782404      0.04273388      0.45977256 C
atom_frac       0.43790927      0.04335362      0.95830214 C
atom_frac       0.75344373      0.28431049      0.32696404 C
atom_frac       0.75283409      0.28463154      0.82762191 C
atom_frac       0.21402110      0.73252933      0.16761307 C
atom_frac       0.21518112      0.73245379      0.66746354 C
atom_frac       0.24437747      0.71735820      0.32769956 C
atom_frac       0.24390778      0.71808048      0.82784974 C
atom_frac       0.78800339      0.26567124      0.16785761 C
atom_frac       0.78699082      0.26616646      0.66844184 C
atom_frac       0.32255856      0.81779028      0.30682052 C
atom_frac       0.32324536      0.81794644      0.80674273 C
atom_frac       0.70025754      0.16999403      0.19012861 C
atom_frac       0.69829628      0.17097881      0.69049984 C
atom_frac       0.67523784      0.18368807      0.30744338 C
atom_frac       0.67349055      0.18454067      0.80785415 C
atom_frac       0.30062457      0.82900215      0.18880424 C
atom_frac       0.30245122      0.82859233      0.68853069 C
atom_frac       0.19422308      0.32673386      0.19257869 C
atom_frac       0.19551947      0.32906505      0.69206934 C
atom_frac       0.82036494      0.68195116      0.31417709 C
atom_frac       0.81980659      0.68097016      0.81391424 C
atom_frac       0.80410241      0.67173943      0.19544322 C
atom_frac       0.80288480      0.67062120      0.69523506 C
atom_frac       0.58177833      0.02299044      0.03752933 C
atom_frac       0.58135887      0.02374691      0.53939137 C
atom_frac       0.58342063      0.01761880      0.45908047 C
atom_frac       0.58339005      0.01748651      0.95715646 C
atom_frac       0.18340265      0.31987065      0.31207232 C
atom_frac       0.18385855      0.32185482      0.81150800 C
atom_frac       0.80298752      0.33633698      0.31080140 C
atom_frac       0.80300497      0.33634741      0.81158583 C
atom_frac       0.17125903      0.67697074      0.18334226 C
atom_frac       0.17162855      0.67729174      0.68333701 C
atom_frac       0.19569586      0.66473633      0.31211637 C
atom_frac       0.19475958      0.66569286      0.81235378 C
atom_frac       0.83072576      0.32140397      0.18279995 C
atom_frac       0.83037870      0.32156228      0.68351572 C
atom_frac       0.64453206      0.84604664      0.14191098 H
atom_frac       0.64484213      0.84581399      0.64208822 H
atom_frac       0.33138298      0.13793120      0.35898500 H
atom_frac       0.32912030      0.13866092      0.85829366 H
atom_frac       0.67420186      0.86513179      0.35952341 H
atom_frac       0.67596134      0.86520974      0.85922862 H
atom_frac       0.34505079      0.82666618      0.35931421 H
atom_frac       0.34526705      0.82703885      0.85933295 H
atom_frac       0.69920439      0.14987906      0.13798166 H
atom_frac       0.69709603      0.15096435      0.63830863 H
atom_frac       0.65137884      0.17601752      0.35979700 H
atom_frac       0.64966744      0.17686274      0.86022087 H
atom_frac       0.30292703      0.84795365      0.13614633 H
atom_frac       0.30528497      0.84725094      0.63576388 H
atom_frac       0.18652631      0.34369643      0.13948473 H
atom_frac       0.18821356      0.34617924      0.63899738 H
atom_frac       0.84020829      0.67276634      0.36736132 H
atom_frac       0.83995507      0.67180737      0.86701586 H
atom_frac       0.80929995      0.65320213      0.14277875 H
atom_frac       0.80775424      0.65200500      0.64258581 H
atom_frac       0.16599824      0.33063973      0.36552618 H
atom_frac       0.16601740      0.33248290      0.86488815 H
atom_frac       0.81726111      0.36847730      0.35391101 H
atom_frac       0.81769526      0.36827094      0.85479075 H
atom_frac       0.13930795      0.65413952      0.13972987 H
atom_frac       0.13978829      0.65439536      0.63970963 H
atom_frac       0.18053212      0.63345505      0.35582355 H
atom_frac       0.17886599      0.63477233      0.85618964 H
atom_frac       0.86384074      0.34323572      0.13910944 H
atom_frac       0.86368280      0.34330114      0.63987104 H
atom_frac       0.71832338      0.75144227      0.10428546 F
atom_frac       0.71744112      0.75043361      0.60415527 F
atom_frac       0.24962048      0.22737650      0.40037156 F
atom_frac       0.24838112      0.22900981      0.89988566 F
atom_frac       0.27529011      0.24397869      0.10140915 F
atom_frac       0.27661577      0.24644183      0.60092883 F
atom_frac       0.75828199      0.77717438      0.40128012 F
atom_frac       0.75926687      0.77644981      0.90113299 F
atom_frac       0.72938208      0.28162749      0.39404988 F
atom_frac       0.72884155      0.28193630      0.89473316 F
atom_frac       0.21043225      0.74939367      0.10008761 F
atom_frac       0.21240072      0.74892110      0.59978593 F
atom_frac       0.26657733      0.72162390      0.39508132 F
atom_frac       0.26553611      0.72262902      0.89534845 F
atom_frac       0.79322868      0.24734610      0.10087211 F
atom_frac       0.79194748      0.24796410      0.60139414 F
atom_frac       0.44085942      0.08671244      0.06269969 H
atom_frac       0.43872664      0.08588508      0.56434186 H
atom_frac       0.37488562      1.01909446      0.05714325 H
atom_frac       0.37444744      1.01742993      0.55818273 H
atom_frac       0.45542365      0.09071644      0.44190579 H
atom_frac       0.45557184      0.09121167      0.94010722 H
atom_frac       0.37754195      0.03098193      0.43549481 H
atom_frac       0.37743778      0.03167454      0.93434659 H
atom_frac       0.63257113     -0.00440560      0.06181382 H
atom_frac       0.63253563     -0.00283930      0.56417393 H
atom_frac       0.58837838      0.07257067      0.05513571 H
atom_frac       0.58679389      0.07353976      0.55654667 H
atom_frac       0.62867068     -0.01845149      0.44164043 H
atom_frac       0.62826044     -0.01858115      0.93907766 H
atom_frac       0.60048746      0.06274106      0.43366915 H
atom_frac       0.60045188      0.06275275      0.93204787 H
atom_frac       0.41830279      0.92197905      0.44312531 H
atom_frac       0.41769016      0.92242584      0.94084233 H
atom_frac       0.52476137      0.90025047      0.43516005 H
atom_frac       0.52416178      0.90063959      0.93322831 H
atom_frac       0.54272868      0.90506274      0.05584859 H
atom_frac       0.54475192      0.90565906      0.55762535 H
atom_frac       0.43310116      0.91418676      0.06384001 H
atom_frac       0.43498473      0.91325308      0.56605386 H
atom_frac       0.11073377      0.44966232      0.44247946 H
atom_frac       0.10880179      0.44708809      0.94196689 H
atom_frac       0.02054685      0.40113025      0.43908422 H
atom_frac       0.01654919      0.40081363      0.93931988 H
atom_frac       0.10415280      0.44304327      0.06535069 H
atom_frac       0.10498709      0.44443524      0.56579056 H
atom_frac       0.00760396      0.40205079      0.06272964 H
atom_frac       0.00931838      0.40233129      0.56237159 H
atom_frac       0.10536643      0.55685301      0.06018440 H
atom_frac       0.10374117      0.55823297      0.55959169 H
atom_frac       0.01016818      0.59978800      0.06292365 H
atom_frac       0.00773570      0.60007835      0.56288779 H
atom_frac       0.09825959      0.56291019      0.43666924 H
atom_frac       0.10094678      0.56055507      0.93723280 H
atom_frac       0.99775968      0.59813372      0.43944968 H
atom_frac       1.00198819      0.59826297      0.93944258 H
atom_frac       0.87585386      0.53334677      0.43637691 H
atom_frac       0.87746734      0.53634244      0.93706703 H
atom_frac       0.88583374      0.44943691      0.44219523 H
atom_frac       0.88398084      0.45219821      0.94193724 H
atom_frac       0.88115043      0.54386387      0.06070598 H
atom_frac       0.87991663      0.54249646      0.55988377 H
atom_frac       0.35080816      0.15053010      0.13989966 H
atom_frac       0.35078003      0.15211679      0.63970598 H
atom_frac       0.87945617      0.45961737      0.06516647 H
atom_frac       0.87990669      0.45828627      0.56527043 H
atom_frac       0.50197135      0.99883626      0.06511544 N
atom_frac       0.50187784      0.99884543      0.56679646 N
atom_frac       0.50087607      0.99816290      0.43275120 N
atom_frac       0.50053813      0.99851288      0.93109795 N
atom_frac       0.99813095      0.50088898      0.06813120 N
atom_frac       0.99773836      0.50101229      0.56796946 N
atom_frac       0.99824851      0.49904775      0.43407028 N
atom_frac       0.99835647      0.49918654      0.93425750 N
