lattice_vector     16.00046921      0.00000000      0.00000000
lattice_vector      0.00000000     21.10403633      0.00000000
lattice_vector      0.00000000      0.00000000     19.18820572
atom_frac       0.50064930      0.00043460      0.18407434 Cu
initial_moment 1.0
atom_frac       0.50069762      0.00019683      0.68337030 Cu
initial_moment 1.0
atom_frac       0.49932403      1.00035367      0.31601023 Cu
initial_moment -1.0
atom_frac       0.49955790      1.00015341      0.81644164 Cu
initial_moment -1.0
atom_frac      -0.00003538      0.50058249      0.18512057 Cu
initial_moment 1.0
atom_frac      -0.00028550      0.50044161      0.68430255 Cu
initial_moment 1.0
atom_frac       0.00070931      0.50006296      0.31733563 Cu
initial_moment -1.0
atom_frac       0.00057636      0.49982273      0.81754871 Cu
initial_moment -1.0
atom_frac       0.57879894      0.92762245      0.19160231 O
atom_frac       0.57700503      0.92784295      0.69125847 O
atom_frac       0.40197612      0.06124620      0.30609405 O
atom_frac       0.40428760      0.06081197      0.80614244 O
atom_frac       0.42347741      0.07398215      0.19102245 O
atom_frac       0.42524309      0.07316841      0.69080080 O
atom_frac       0.59654982      0.93873770      0.30742952 O
atom_frac       0.59481209      0.93905502      0.80722321 O
atom_frac       0.42476589      0.92864815      0.30790431 O
atom_frac       0.42427703      0.92804723      0.80835421 O
atom_frac       0.59288615      0.06076555      0.19312622 O
atom_frac       0.59473788      0.06060053      0.69342645 O
atom_frac       0.57299842      0.07289048      0.30921711 O
atom_frac       0.57394581      0.07300137      0.80941870 O
atom_frac       0.40796671      0.94004678      0.19132778 O
atom_frac       0.40629723      0.93961595      0.69187652 O
atom_frac       0.09181608      0.43950575      0.19347432 O
atom_frac       0.09393373      0.43948474      0.69384602 O
atom_frac       0.92446248      0.57107170      0.31188473 O
atom_frac       0.92480503      0.57183047      0.81224731 O
atom_frac       0.90863094      0.56187415      0.19493899 O
atom_frac       0.90594483      0.56141453      0.69571297 O
atom_frac       0.07738959      0.42965813      0.31037387 O
atom_frac       0.07659203      0.42833882      0.81036666 O
atom_frac       0.90546879      0.43697424      0.30593807 O
atom_frac       0.90591263      0.43793534      0.80568239 O
atom_frac       0.07842882      0.57262886      0.19121112 O
atom_frac       0.07572040      0.57253551      0.69096161 O
atom_frac       0.09683303      0.56274594      0.30703684 O
atom_frac       0.09591172      0.56144276      0.80657537 O
atom_frac       0.92169194      0.42805575      0.18971096 O
atom_frac       0.92369156      0.42804888      0.68956176 O
atom_frac       0.60938253      0.91135151      0.24987946 C
atom_frac       0.60766700      0.91171552      0.74959222 C
atom_frac       0.39092669      0.08940637      0.24878941 C
atom_frac       0.39298060      0.08875146      0.74868377 C
atom_frac       0.39455535      0.91249617      0.24918719 C
atom_frac       0.39341246      0.91222695      0.74976367 C
atom_frac       0.60462558      0.08877897      0.25090923 C
atom_frac       0.60616578      0.08845103      0.75120697 C
atom_frac       0.10647755      0.41277912      0.25152407 C
atom_frac       0.10717783      0.41232640      0.75173120 C
atom_frac       0.89487667      0.58839174      0.25328951 C
atom_frac       0.89355242      0.58825443      0.75393061 C
atom_frac       0.89193420      0.41066869      0.24794504 C
atom_frac       0.89309921      0.41123969      0.74776187 C
atom_frac       0.04174942      0.55687178      0.04046393 C
atom_frac       0.04159055      0.55687931      0.53989335 C
atom_frac       0.03878226      0.55744474      0.45933758 C
atom_frac       0.03903602      0.55729873      0.95990715 C
atom_frac       0.10937818      0.58946810      0.24914163 C
atom_frac       0.10759871      0.58870659      0.74883372 C
atom_frac       0.66419147      0.85273278      0.25015050 C
atom_frac       0.66260650      0.85315463      0.75000318 C
atom_frac       0.49651725      0.93359473      0.04069116 C
atom_frac       0.49575108      0.93337418      0.53951389 C
atom_frac       0.48782424      0.93374043      0.45906508 C
atom_frac       0.48869102      0.93382946      0.96025482 C
atom_frac       0.04353875      0.44405272      0.46066164 C
atom_frac       0.04350622      0.44393324      0.96132304 C
atom_frac       0.04024219      0.44344024      0.04185455 C
atom_frac       0.03995504      0.44347215      0.54120184 C
atom_frac       0.33600002      0.14793375      0.24886373 C
atom_frac       0.33796118      0.14727487      0.74880371 C
atom_frac       0.34109258      0.85553485      0.24880131 C
atom_frac       0.33953561      0.85519816      0.74962990 C
atom_frac       0.65818369      0.14567470      0.25049243 C
atom_frac       0.66018000      0.14537200      0.75104669 C
atom_frac       0.16014031      0.35594019      0.25098071 C
atom_frac       0.16122092      0.35537685      0.75145625 C
atom_frac       0.91181947      0.49762770      0.45962339 C
atom_frac       0.91192970      0.49776617      0.96039252 C
atom_frac       0.91172983      0.50122578      0.04109251 C
atom_frac       0.91150275      0.50141037      0.54031678 C
atom_frac       0.84136802      0.64533221      0.25316956 C
atom_frac       0.83955877      0.64522010      0.75410602 C
atom_frac       0.83694840      0.35221494      0.24763840 C
atom_frac       0.83808345      0.35275733      0.74754710 C
atom_frac       0.16428276      0.64799272      0.24834163 C
atom_frac       0.16259211      0.64724030      0.74819537 C
atom_frac       0.66988178      0.82033991      0.18668885 C
atom_frac       0.66677762      0.81963931      0.68712355 C
atom_frac       0.30779654      0.16783465      0.31432754 C
atom_frac       0.30809306      0.16641150      0.81407733 C
atom_frac       0.32196992      0.17592932      0.18379268 C
atom_frac       0.32539253      0.17631538      0.68403974 C
atom_frac       0.70061327      0.83713046      0.31419617 C
atom_frac       0.70067516      0.83843101      0.81366763 C
atom_frac       0.71171040      0.76435849      0.17101924 C
atom_frac       0.70800210      0.76323393      0.67198571 C
atom_frac       0.26045014      0.22080290      0.33169847 C
atom_frac       0.26012157      0.21911795      0.83146662 C
atom_frac       0.27814626      0.23086110      0.16743463 C
atom_frac       0.28184551      0.23150914      0.66798117 C
atom_frac       0.75056026      0.78549595      0.33142175 C
atom_frac       0.75097708      0.78695650      0.83099538 C
atom_frac       0.75923446      0.72572484      0.21423892 C
atom_frac       0.75643616      0.72509949      0.71507658 C
atom_frac       0.22857934      0.26800214      0.28870411 C
atom_frac       0.22903537      0.26694439      0.78888739 C
atom_frac       0.23682457      0.27273477      0.21145191 C
atom_frac       0.23920977      0.27276739      0.71186387 C
atom_frac       0.77723916      0.73554337      0.28973728 C
atom_frac       0.77647650      0.73615750      0.79002760 C
atom_frac       0.71995379      0.23710276      0.28612903 C
atom_frac       0.72152292      0.23711939      0.78646090 C
atom_frac       0.25662717      0.77593919      0.21139239 C
atom_frac       0.25489179      0.77569814      0.71195596 C
atom_frac       0.27982677      0.76425427      0.28556867 C
atom_frac       0.27837873      0.76365600      0.78600836 C
atom_frac       0.74379109      0.22428061      0.21231686 C
atom_frac       0.74563315      0.22411093      0.71273952 C
atom_frac       0.42922744      0.03472613      0.04033077 C
atom_frac       0.42934098      0.03476433      0.53934235 C
atom_frac       0.43339348      0.03919784      0.45904392 C
atom_frac       0.43311007      0.03888956      0.95999928 C
atom_frac       0.74370327      0.28847042      0.32692890 C
atom_frac       0.74492020      0.28882172      0.82691011 C
atom_frac       0.20630904      0.73817690      0.16945408 C
atom_frac       0.20451624      0.73801457      0.66994626 C
atom_frac       0.25621822      0.71330531      0.32707559 C
atom_frac       0.25482385      0.71238499      0.82708361 C
atom_frac       0.79502401      0.26108407      0.17010094 C
atom_frac       0.79659985      0.26109635      0.67046142 C
atom_frac       0.33121086      0.81448216      0.30605551 C
atom_frac       0.32984503      0.81382709      0.80666940 C
atom_frac       0.70419462      0.16786304      0.19292983 C
atom_frac       0.70636292      0.16749889      0.69352102 C
atom_frac       0.66789400      0.18743310      0.30712716 C
atom_frac       0.66959372      0.18736067      0.80754763 C
atom_frac       0.29588122      0.83231496      0.19131011 C
atom_frac       0.29403663      0.83221474      0.69214071 C
atom_frac       0.19398109      0.32742128      0.19097278 C
atom_frac       0.19669840      0.32769474      0.69159025 C
atom_frac       0.82740241      0.68487455      0.31112801 C
atom_frac       0.82714467      0.68575902      0.81150293 C
atom_frac       0.79995922      0.66992864      0.19439190 C
atom_frac       0.79654011      0.66891429      0.69564494 C
atom_frac       0.57849824      0.02827281      0.04001974 C
atom_frac       0.57852867      0.02767065      0.53895985 C
atom_frac       0.58136682      0.02202840      0.45861702 C
atom_frac       0.58121124      0.02275958      0.95966081 C
atom_frac       0.18125794      0.32012434      0.31032090 C
atom_frac       0.18100096      0.31872073      0.81053990 C
atom_frac       0.79557847      0.33912031      0.31024274 C
atom_frac       0.79654066      0.33965293      0.81010809 C
atom_frac       0.16579523      0.68171342      0.18554307 C
atom_frac       0.16401845      0.68140017      0.68564539 C
atom_frac       0.20496349      0.66213659      0.31097311 C
atom_frac       0.20354716      0.66121566      0.81078712 C
atom_frac       0.83588301      0.31757845      0.18543675 C
atom_frac       0.83714661      0.31782504      0.68551260 C
atom_frac       0.63531441      0.84273848      0.14415082 H
atom_frac       0.63140400      0.84128134      0.64457510 H
atom_frac       0.32696933      0.13687304      0.35717207 H
atom_frac       0.32624353      0.13507696      0.85688639 H
atom_frac       0.68652067      0.87071629      0.35599899 H
atom_frac       0.68788088      0.87259234      0.85517665 H
atom_frac       0.36007788      0.82065606      0.35699480 H
atom_frac       0.35892725      0.81973977      0.85756900 H
atom_frac       0.70798853      0.14482730      0.14223859 H
atom_frac       0.71029860      0.14432358      0.64291979 H
atom_frac       0.63855252      0.18221971      0.35801643 H
atom_frac       0.64008528      0.18222878      0.85838856 H
atom_frac       0.29224230      0.85458705      0.14019454 H
atom_frac       0.29032531      0.85473133      0.64116406 H
atom_frac       0.18706930      0.34488543      0.13787365 H
atom_frac       0.19105560      0.34593190      0.63869920 H
atom_frac       0.85263539      0.67749368      0.36321166 H
atom_frac       0.85380672      0.67922979      0.86323056 H
atom_frac       0.80015004      0.64897924      0.14251700 H
atom_frac       0.79538294      0.64707725      0.64422815 H
atom_frac       0.16270674      0.33101819      0.36359858 H
atom_frac       0.16107926      0.32885047      0.86366088 H
atom_frac       0.80695454      0.37404387      0.35128481 H
atom_frac       0.80741512      0.37467931      0.85111736 H
atom_frac       0.12863693      0.66010989      0.14401917 H
atom_frac       0.12685813      0.66016219      0.64391769 H
atom_frac       0.19351881      0.62775431      0.35254676 H
atom_frac       0.19243850      0.62669969      0.85227388 H
atom_frac       0.87365587      0.33836342      0.14379606 H
atom_frac       0.87475090      0.33845673      0.64369542 H
atom_frac       0.70632821      0.74802586      0.11689896 H
atom_frac       0.70119642      0.74606893      0.61828742 H
atom_frac       0.24625533      0.22650728      0.38730931 H
atom_frac       0.24464996      0.22393856      0.88694059 H
atom_frac       0.27613360      0.24334060      0.11193309 H
atom_frac       0.28129066      0.24474289      0.61266638 H
atom_frac       0.77190938      0.78356380      0.38574866 H
atom_frac       0.77374171      0.78603416      0.88495283 H
atom_frac       0.71801903      0.28866957      0.37998363 H
atom_frac       0.71912322      0.28923977      0.87991580 H
atom_frac       0.19720752      0.75567061      0.11613712 H
atom_frac       0.19522695      0.75575004      0.61672822 H
atom_frac       0.28150267      0.71398197      0.38025978 H
atom_frac       0.28016656      0.71269612      0.88023263 H
atom_frac       0.80464286      0.24265335      0.11721023 H
atom_frac       0.80637012      0.24259972      0.61760632 H
atom_frac       0.42987138      0.08190976      0.06475709 H
atom_frac       0.43017918      0.08189588      0.56391230 H
atom_frac       0.37241705      1.01030769      0.05858761 H
atom_frac       0.37232499      1.01048849      0.55738284 H
atom_frac       0.44643956      0.08781235      0.44115364 H
atom_frac       0.44549693      0.08756487      0.94195290 H
atom_frac       0.37442754      0.02429484      0.43439475 H
atom_frac       0.37426596      0.02345397      0.93551890 H
atom_frac       0.63211551      0.00452439      0.06481917 H
atom_frac       0.63202250      0.00380103      0.56381979 H
atom_frac       0.57919338      0.07793561      0.05763563 H
atom_frac       0.57947978      0.07736304      0.55648660 H
atom_frac       0.62988005     -0.01137081      0.44095453 H
atom_frac       0.63023169     -0.01019066      0.94192975 H
atom_frac       0.59424134      0.06782012      0.43331084 H
atom_frac       0.59339925      0.06868821      0.93442986 H
atom_frac       0.42565827      0.91805791      0.44147802 H
atom_frac       0.42674612      0.91770346      0.94261764 H
atom_frac       0.53426383      0.90259140      0.43407385 H
atom_frac       0.53551567      0.90291147      0.93539879 H
atom_frac       0.55326390      0.90881949      0.05840486 H
atom_frac       0.55234358      0.90827713      0.55705811 H
atom_frac       0.44277847      0.91043995      0.06599262 H
atom_frac       0.44185470      0.91041137      0.56479606 H
atom_frac       0.10815101      0.44663794      0.44112140 H
atom_frac       0.10805915      0.44636766      0.94160437 H
atom_frac       0.01512379      0.40131709      0.43775619 H
atom_frac       0.01490439      0.40119986      0.93855824 H
atom_frac       0.10305601      0.44189132      0.06517495 H
atom_frac       0.10267235      0.44184027      0.56470141 H
atom_frac       0.00553640      0.40231272      0.06219918 H
atom_frac       0.00510847      0.40232974      0.56135944 H
atom_frac       0.10622915      0.55558986      0.06045233 H
atom_frac       0.10612627      0.55543562      0.55976668 H
atom_frac       1.01151051      0.59907904      0.06297504 H
atom_frac       1.01154450      0.59912785      0.56248584 H
atom_frac       0.10172249      0.55981664      0.43636000 H
atom_frac       0.10206473      0.55946695      0.93703108 H
atom_frac       1.00317178      0.59803329      0.43878303 H
atom_frac       1.00364250      0.59795408      0.93923660 H
atom_frac       0.87763122      0.53732442      0.43560163 H
atom_frac       0.87796993      0.53768176      0.93658470 H
atom_frac       0.88328005      0.45346157      0.44044320 H
atom_frac       0.88301944      0.45377430      0.94108854 H
atom_frac       0.88163860      0.54473785      0.06046244 H
atom_frac       0.88160324      0.54507644      0.55945353 H
atom_frac       0.35090881      0.15058928      0.14033367 H
atom_frac       0.35526747      0.15175550      0.64049193 H
atom_frac       0.87862951      0.46081482      0.06471025 H
atom_frac       0.87810275      0.46117210      0.56401301 H
atom_frac       0.50150496      0.99903850      0.06719199 N
atom_frac       0.50132135      0.99874044      0.56618034 N
atom_frac       0.50072977      0.99838540      0.43208663 N
atom_frac       0.50089678      0.99849739      0.93309162 N
atom_frac       0.99803154      0.50075984      0.06783551 N
atom_frac       0.99774474      0.50080835      0.56719349 N
atom_frac       0.99828212      0.49943641      0.43320888 N
atom_frac       0.99834074      0.49935653      0.93381777 N
